Minimize
  - 23 y_0 - 23 y_1 - 30 y_2 - 13 y_3 - 30 y_4 - 9 y_5 - 19 y_7 - 13 y_8
   - 24 y_9 + 103 x_0_2 + 61 x_0_4 + 46 x_0_6 + 71 x_0_7 + 20 x_0_8
   + 22 x_1_2 + 38 x_1_3 + 42 x_1_5 + 14 x_1_7 + 64 x_1_8 + 36 x_1_9
   + 60 x_2_6 + 36 x_2_7 + 83 x_2_8 + 29 x_2_9 + 76 x_3_4 + 37 x_3_5
   + 25 x_3_6 + 38 x_3_7 + 43 x_4_5 + 60 x_4_6 + 53 x_4_8 + 88 x_4_9
   + 17 x_5_6 + 29 x_5_7 + 23 x_5_8 + 56 x_5_9 + 37 x_6_7 + 26 x_6_8
   + 48 x_6_9 + 44 x_7_9 + 184 Constant
Subject To
 c_0: y_5 = 1
 c_1_0: y_0 >= 1
 c_1_1: y_1 >= 1
 c_1_2: y_2 >= 1
 c_1_3: y_3 >= 1
 c_1_4: y_4 >= 1
 c_1_5: y_5 >= 1
 c_1_6: y_6 >= 1
 c_1_7: y_7 >= 1
 c_1_8: y_8 >= 1
 c_1_9: y_9 >= 1
 c_2_0: - 2 y_0 + x_0_2 + x_0_4 + x_0_6 + x_0_7 + x_0_8 = 0
 c_2_1: - 2 y_1 + x_1_2 + x_1_3 + x_1_5 + x_1_7 + x_1_8 + x_1_9 = 0
 c_2_2: - 2 y_2 + x_0_2 + x_1_2 + x_2_6 + x_2_7 + x_2_8 + x_2_9 = 0
 c_2_3: - 2 y_3 + x_1_3 + x_3_4 + x_3_5 + x_3_6 + x_3_7 = 0
 c_2_4: - 2 y_4 + x_0_4 + x_3_4 + x_4_5 + x_4_6 + x_4_8 + x_4_9 = 0
 c_2_5: - 2 y_5 + x_1_5 + x_3_5 + x_4_5 + x_5_6 + x_5_7 + x_5_8 + x_5_9
   = 0
 c_2_6: - 2 y_6 + x_0_6 + x_2_6 + x_3_6 + x_4_6 + x_5_6 + x_6_7 + x_6_8
   + x_6_9 = 0
 c_2_7: - 2 y_7 + x_0_7 + x_1_7 + x_2_7 + x_3_7 + x_5_7 + x_6_7 + x_7_9
   = 0
 c_2_8: - 2 y_8 + x_0_8 + x_1_8 + x_2_8 + x_4_8 + x_5_8 + x_6_8 = 0
 c_2_9: - 2 y_9 + x_1_9 + x_2_9 + x_4_9 + x_5_9 + x_6_9 + x_7_9 = 0
Bounds
 Constant = 1
Binaries
 y_0 y_1 y_2 y_3 y_4 y_5 y_6 y_7 y_8 y_9 x_0_2 x_0_4 x_0_6 x_0_7 x_0_8
 x_1_2 x_1_3 x_1_5 x_1_7 x_1_8 x_1_9 x_2_6 x_2_7 x_2_8 x_2_9 x_3_4 x_3_5
 x_3_6 x_3_7 x_4_5 x_4_6 x_4_8 x_4_9 x_5_6 x_5_7 x_5_8 x_5_9 x_6_7 x_6_8
 x_6_9 x_7_9
End
